18
3 4 4 9 6 12 8 5 0 12 13 2 3 3 12 10 4 10 14 7 10 11 6 10 16 5 2 1 7 13 8 16 17 17 14 11 1 6 3 0 11 0 9 5 0 9 8 1 7 14 7 9 12 15 14 12 4 9 1 16 1 2 7 9 15 4 13 0 9 1 2 5 7 1 10 14 13 11 5 13 11 6 4 0 2 7 16 3 11 15 17 6 6 2 4 8 0 5 8 4 
